109
3,4,5,9
3,5,9,36,37,38,39
3,4,5,30,31,36,37,38,39,41,42,45
3,5,10,29,35,40,46,50
9,10,11,12,13,14,15,16,17,18,19,20,21,22,23,24,25,26,27,28,29,35,40,46,50
3,5,9,30,31,36,37,38,41,42,51
3,5,9,30,31,36,39,41,42,51
3,5,9,30,31,37,38,39,41,42,51
3,4,5,30,31,36,37,38,39,41,42,51
3,5,36,37,38,39,41,42,43,45,51
9,10,29,30,35,37,38,39,40,41,42,45,46,51
3,4,5,29,30,31,32,34,36,37,38,40,41,42,43,45,50,51
10,11,12,13,14,15,16,17,18,19,20,21,22,23,24,25,26,27,28,29,30,31,35,36,37,38,39,40,41,42,45,46,50,51
3,4,5,36,37,38,39,52
3,5,9,30,31,36,37,38,41,42,52
3,5,30,31,36,38,39,41,42,52
3,5,9,30,31,37,38,39,41,42,52
3,4,5,29,30,31,32,34,36,37,38,40,41,42,43,45,52
9,10,29,30,31,32,33,34,35,36,37,38,39,40,41,42,43,45,46,52
3,5,9,30,31,36,37,51,52
3,5,9,30,31,36,38,39,51,52
3,5,9,30,31,36,38,41,42,51,52
3,5,9,30,31,37,38,41,42,51,52
3,4,5,36,37,38,41,42,51,52
3,5,9,36,37,38,41,42,51,52
3,5,9,36,37,39,41,42,51,52
3,5,9,38,39,41,42,51,52
3,5,9,38,41,42,45,51,52
3,4,5,30,31,32,34,37,38,41,42,45,51,52
3,4,5,30,31,37,39,41,42,45,51,52
3,5,9,30,31,37,39,41,42,45,51,52
3,5,30,31,36,37,38,41,42,43,45,51,52
9,10,29,30,31,32,34,35,37,38,39,40,41,46,51,52
9,10,29,30,31,35,36,37,38,39,40,41,46,51,52
9,10,29,30,31,35,36,37,38,40,41,42,46,51,52
9,10,29,30,31,35,37,38,39,40,41,42,46,51,52
10,11,12,13,14,15,16,17,18,19,20,21,22,23,24,25,26,27,28,29,30,31,32,34,35,36,37,38,39,40,41,46,50,51,52
9,10,29,30,35,36,37,38,39,40,41,42,46,50,51,52
10,11,12,13,14,15,16,17,18,19,20,21,22,23,24,25,26,27,28,29,30,31,35,36,37,38,39,40,41,42,46,50,51,52
10,11,12,13,14,15,16,17,18,19,20,21,22,23,24,25,26,27,28,29,30,31,32,35,36,37,38,40,41,42,43,46,50,51,52
10,29,30,31,32,34,35,36,37,38,39,40,41,42,43,46,50,51,52
10,11,12,13,14,15,16,17,18,19,20,21,22,23,24,25,26,27,28,29,30,31,35,37,38,40,41,42,45,46,50,51,52
10,11,12,13,14,15,16,17,18,19,20,21,22,23,24,25,26,27,28,29,30,35,36,37,38,40,41,42,45,46,50,51,52
9,10,11,12,13,14,15,16,17,18,19,20,21,22,23,24,25,26,27,28,29,35,40,46,48,54
9,10,11,12,13,14,15,16,17,18,19,20,21,22,23,24,25,26,27,28,29,30,31,35,36,37,38,39,40,41,42,45,50,54
9,10,11,12,13,14,15,16,17,18,19,40,46,50,54
10,11,12,13,14,15,16,17,18,19,29,35,40,46,50,54
9,10,20,21,22,23,24,25,26,27,28,29,35,40,46,50,54
10,20,21,22,23,24,25,26,27,28,29,30,31,32,34,35,36,37,38,39,40,41,42,45,46,50,54
9,10,20,21,22,23,24,25,26,27,28,29,30,31,35,36,37,38,40,41,42,46,51,54
9,10,20,21,22,23,24,25,26,27,28,29,30,35,36,37,38,39,40,41,42,46,51,54
3,5,10,11,12,13,14,15,16,17,18,19,20,21,22,23,24,25,26,27,28,29,30,31,34,35,36,37,38,39,40,41,42,46,51,54
9,10,11,12,13,14,15,20,21,22,23,24,25,26,27,28,29,30,31,35,36,37,38,40,41,50,51,54
9,10,20,21,22,23,24,25,26,27,28,29,30,35,36,37,38,39,40,41,46,52,54
9,10,20,21,22,23,24,25,26,27,28,29,30,31,34,35,37,38,39,40,41,42,46,52,54
9,10,11,12,13,14,15,16,17,18,19,20,21,22,23,24,25,26,27,28,29,30,31,35,36,37,38,40,41,42,43,46,52,54
9,10,11,12,13,14,15,29,30,31,35,37,38,39,40,41,42,45,46,52,54
3,5,9,10,11,12,13,14,15,20,21,22,23,24,25,26,27,28,29,30,31,35,36,37,38,40,41,50,52,54
9,10,11,12,13,14,15,16,17,18,19,20,21,22,23,24,25,26,27,28,29,30,31,32,33,34,35,36,37,38,39,40,41,42,50,52,54
9,10,11,12,13,14,15,16,17,18,19,20,21,22,23,24,25,26,27,28,29,30,31,35,36,37,39,40,41,42,45,50,52,54
9,10,20,21,22,23,24,29,30,31,35,36,37,38,39,40,41,42,46,50,52,54
9,10,11,12,13,14,15,16,17,18,19,20,21,22,23,24,25,26,27,28,29,30,31,32,34,35,36,37,38,40,41,46,51,52,54
3,5,10,11,12,13,14,15,16,17,18,19,20,21,22,23,24,25,26,27,28,29,30,31,32,33,34,35,36,37,38,39,40,41,46,51,52,54
3,5,10,11,12,13,14,15,16,17,18,19,20,21,22,23,24,25,26,27,28,29,30,31,32,34,35,36,37,38,40,41,42,46,51,52,54
9,10,11,12,13,14,15,16,17,18,19,20,21,22,23,24,25,26,27,28,29,30,31,36,37,38,39,40,41,42,46,51,52,54
9,10,20,21,22,23,24,25,26,27,28,29,30,31,35,37,38,40,41,42,45,46,51,52,54
9,10,11,12,13,14,15,16,17,18,19,20,21,22,23,24,25,26,27,28,29,30,35,36,37,38,40,41,42,45,46,51,52,54
10,11,12,13,14,15,16,17,18,19,20,21,22,23,24,25,26,27,28,29,30,31,32,34,35,36,37,38,40,41,42,43,45,46,51,52,54
3,5,9,10,20,21,22,23,24,25,26,27,28,29,30,31,37,38,40,41,50,51,52,54
9,10,20,21,22,23,24,25,26,27,28,29,30,31,32,37,38,39,40,41,50,51,52,54
9,10,11,12,13,14,15,16,17,18,19,20,21,22,23,24,25,26,27,28,29,31,36,37,38,39,40,41,50,51,52,54
9,10,20,21,22,23,24,25,26,27,28,29,30,35,36,37,38,39,40,42,50,51,52,54
9,10,11,12,13,14,15,16,17,18,19,20,21,22,23,24,25,26,27,28,29,30,35,37,38,39,41,42,50,51,52,54
3,5,9,10,20,21,22,23,24,25,26,27,28,29,30,37,38,40,41,42,50,51,52,54
9,10,11,12,13,14,15,20,21,22,23,24,25,26,27,28,29,30,31,35,37,38,40,41,42,50,51,52,54
9,10,11,12,13,14,15,16,17,18,19,20,21,22,23,24,25,26,27,28,30,31,36,37,38,40,41,42,50,51,52,54
9,10,20,21,22,23,24,25,26,27,28,29,30,31,36,37,38,40,41,42,50,51,52,54
9,10,20,21,22,23,24,25,26,27,28,29,30,31,36,37,39,40,41,42,50,51,52,54
9,10,20,21,22,23,24,25,26,27,28,29,30,36,37,38,39,40,41,42,50,51,52,54
9,10,11,12,13,14,15,16,17,18,19,20,21,22,23,24,25,26,27,28,30,31,32,36,37,39,40,41,42,43,50,51,52,54
3,4,5,10,11,12,13,14,15,16,17,18,19,20,21,22,23,24,25,26,27,28,29,30,31,35,37,38,40,41,42,45,50,51,52,54
3,5,10,11,12,13,14,15,20,21,22,23,24,25,26,27,28,29,30,31,35,36,37,38,40,41,42,45,50,51,52,54
9,10,11,12,13,14,15,16,17,18,19,20,21,22,23,24,25,26,27,28,29,30,31,36,38,39,40,41,42,45,50,51,52,54
9,10,11,12,13,14,15,16,17,18,19,20,21,22,23,24,25,26,27,28,29,30,31,37,38,39,40,41,42,45,50,51,52,54
9,10,20,21,22,23,24,25,26,27,28,29,30,31,35,37,38,39,40,41,42,45,50,51,52,54
9,10,11,12,13,14,15,16,17,18,19,20,21,22,23,24,25,26,27,28,36,37,38,39,40,41,42,45,50,51,52,54
3,4,5,10,20,21,22,23,24,25,26,27,28,29,30,31,32,34,36,37,40,42,43,45,50,51,52,54
9,10,20,21,22,23,24,25,26,27,28,29,31,32,36,37,38,40,41,42,43,45,50,51,52,54
9,10,11,12,13,14,15,16,17,18,19,20,21,22,23,24,25,26,27,28,30,31,36,38,39,40,41,42,43,45,50,51,52,54
10,20,21,22,23,24,25,26,27,28,29,30,31,32,34,35,36,37,38,39,40,41,46,50,51,52,54
9,10,11,12,13,14,15,29,30,31,35,37,38,40,41,42,46,50,51,52,54
9,10,20,21,22,23,24,25,26,27,28,30,31,36,37,38,40,41,42,46,50,51,52,54
10,20,21,22,23,24,25,26,27,28,29,30,31,35,36,37,38,40,41,42,46,50,51,52,54
9,10,20,21,22,23,24,25,26,27,28,30,31,36,37,39,40,41,42,46,50,51,52,54
9,10,20,21,22,23,24,25,26,27,28,30,31,36,38,39,40,41,42,45,46,50,51,52,54
10,20,21,22,23,24,25,26,27,28,29,30,35,37,38,39,40,41,42,43,45,46,50,51,52,54
9,10,20,21,22,23,24,25,26,27,28,36,37,38,39,40,41,42,43,45,46,50,51,52,54
9,10,11,12,13,14,15,16,17,18,19,40,50,54,55
9,10,11,12,13,14,15,29,35,40,46,50,54,55
9,10,20,21,22,23,24,29,35,40,46,50,54,55
9,10,11,12,13,14,15,16,17,18,19,20,21,22,23,24,25,26,27,28,29,30,31,32,34,36,37,38,39,40,41,42,51,54,55
9,10,11,12,13,14,15,16,17,18,19,29,30,31,35,36,37,38,39,40,41,42,46,52,54,55
9,10,20,21,22,23,24,25,26,27,28,29,31,38,39,40,42,45,50,52,54,55
9,10,11,12,13,14,15,16,17,18,19,20,21,22,23,24,25,26,27,28,29,30,31,32,34,35,36,37,38,39,41,42,45,50,52,54,55
9,10,11,12,13,14,15,16,17,18,19,20,21,22,23,24,25,26,27,28,29,30,31,32,34,36,37,38,39,40,41,51,52,54,55
9,10,11,12,13,14,15,16,17,18,19,20,21,22,23,24,25,26,27,28,29,30,31,36,37,38,39,40,41,42,51,52,54,55
9,10,11,12,13,14,15,16,17,18,19,20,21,22,23,24,25,26,27,28,29,30,31,34,36,37,38,40,41,42,45,51,52,54,55
9,10,11,12,13,14,15,16,17,18,19,20,21,22,23,24,25,26,27,28,29,30,36,37,38,39,40,41,42,43,45,51,52,54,55
9,10,11,12,13,14,15,16,17,18,19,20,21,22,23,24,29,30,35,36,37,38,40,41,42,45,46,51,52,54,55
10,11,12,13,14,15,16,17,18,19,29,30,31,34,35,36,37,38,39,40,41,42,45,46,51,52,54,55
10,20,21,22,23,24,25,26,27,28,29,30,31,35,36,37,38,40,41,42,43,45,46,51,52,54,55
9,10,11,12,13,14,15,20,21,22,23,24,25,26,27,28,29,30,31,32,34,36,37,38,39,50,51,52,54,55
9,10,11,12,13,14,15,16,17,18,19,20,21,22,23,24,25,26,27,28,29,30,31,32,34,37,38,39,41,42,50,51,52,54,55
9,10,11,12,13,14,15,20,21,22,23,24,25,26,27,28,29,30,31,36,37,38,39,41,42,50,51,52,54,55
9,10,20,21,22,23,24,25,26,27,28,29,30,31,32,34,35,37,38,40,41,42,50,51,52,54,55
9,10,20,21,22,23,24,25,26,27,28,29,30,31,37,38,39,40,41,42,50,51,52,54,55
9,10,11,12,13,14,15,16,17,18,19,20,21,22,23,24,25,26,27,28,29,30,31,32,33,34,36,37,38,41,42,43,50,51,52,54,55
9,10,11,12,13,14,15,16,17,18,19,20,21,22,23,24,25,26,27,28,29,30,31,32,36,37,38,41,42,45,50,51,52,54,55
9,10,11,12,13,14,15,20,21,22,23,24,25,26,27,28,29,30,31,36,37,39,41,42,45,50,51,52,54,55
9,10,20,21,22,23,24,25,26,27,28,29,30,36,37,38,40,41,42,45,50,51,52,54,55
3,5,10,11,12,13,14,15,16,17,18,19,20,21,22,23,24,25,26,27,28,29,30,31,32,35,36,37,38,39,40,42,43,45,50,51,52,54,55
9,10,20,21,22,23,24,25,26,27,28,29,30,31,32,34,37,39,40,41,42,43,45,50,51,52,54,55
3,4,5,10,11,12,13,14,15,16,17,18,19,29,30,31,34,36,37,38,40,41,46,50,51,52,54,55
9,10,20,21,22,23,24,25,26,27,28,29,30,31,34,36,37,38,39,40,41,46,50,51,52,54,55
10,11,12,13,14,15,20,21,22,23,24,25,26,27,28,29,30,35,36,37,38,39,40,41,46,50,51,52,54,55
3,5,10,20,21,22,23,24,25,26,27,28,29,30,31,32,34,37,38,40,41,42,46,50,51,52,54,55
3,4,5,10,11,12,13,14,15,16,17,18,19,20,21,22,23,24,25,26,27,28,30,31,37,38,39,40,41,42,46,50,51,52,54,55
10,20,21,22,23,24,25,26,27,28,29,30,31,35,37,38,39,40,41,42,46,50,51,52,54,55
10,20,21,22,23,24,25,26,27,28,29,30,35,37,38,39,40,41,42,45,46,50,51,52,54,55
9,10,11,12,13,14,15,20,21,22,23,24,25,26,27,28,36,37,38,39,40,41,42,45,46,50,51,52,54,55
9,10,20,21,22,23,24,25,26,27,28,30,31,32,33,34,37,38,39,40,41,42,43,45,46,50,51,52,54,55
10,11,12,13,14,15,16,17,18,19,20,21,22,23,24,25,26,27,28,29,30,31,32,33,34,35,36,37,38,39,40,41,42,43,46,50,51,56,58
9,10,20,21,22,23,24,25,26,27,28,30,31,32,33,34,36,37,38,39,40,41,46,50,51,52,54,57,58
9,10,20,21,22,23,24,25,26,27,28,29,30,31,32,33,34,36,38,40,41,42,43,45,46,50,51,52,54,55,57,58
9,10,29,30,31,32,34,35,36,37,38,39,40,41,42,43,45,46,57,60
9,10,11,12,13,14,15,16,17,18,19,20,21,22,23,24,25,26,27,28,29,30,31,32,34,36,37,38,40,41,42,43,51,52,54,55,57,60
9,10,20,21,22,23,24,25,26,27,28,29,30,31,32,34,35,37,38,40,41,42,43,45,50,54,57,58,60
9,10,11,12,13,14,15,16,17,18,19,20,21,22,23,24,25,26,27,28,29,30,31,32,34,36,37,38,40,41,42,43,45,46,51,52,54,57,58,60
9,10,11,12,13,14,15,16,17,18,19,20,21,22,23,24,25,26,27,28,29,30,31,32,34,37,38,39,40,41,42,43,45,46,51,52,54,57,58,60
3,4,5,10,20,21,22,23,24,25,26,27,28,29,30,31,32,36,37,38,40,41,46,50,51,52,54,55,57,58,60
3,5,9,30,31,32,34,37,39,41,42,43,51,52,56,57,58,60
10,20,21,22,23,24,25,26,27,28,29,30,31,32,34,35,36,37,38,39,40,41,42,43,46,51,52,54,55,56,57,58,60
3,5,9,30,31,32,33,34,37,38,41,42,43,44,45,56,57,58,59,60
3,5,30,31,32,34,36,37,38,41,42,43,44,45,51,56,57,58,59,60
3,4,5,30,31,32,33,34,37,38,39,41,42,43,44,45,51,56,57,58,59,60
9,10,29,30,31,32,35,36,37,38,40,41,42,43,44,45,46,50,51,56,57,58,59,60
3,4,5,30,31,32,33,34,36,37,38,41,42,43,44,45,52,56,57,58,59,60
9,10,20,21,22,23,24,25,26,27,28,29,30,31,32,33,34,36,37,38,39,40,41,42,43,44,45,50,51,54,56,57,58,59,60
9,10,11,12,13,14,15,16,17,18,19,20,21,22,23,24,25,26,27,28,29,30,31,32,35,36,37,38,39,41,42,43,44,45,50,52,54,56,57,58,59,60
9,10,11,12,13,14,15,16,17,18,19,20,21,22,23,24,25,26,27,28,29,30,36,37,38,40,41,42,43,44,45,46,51,52,54,56,57,58,59,60
9,10,11,12,13,14,15,16,17,18,19,20,21,22,23,24,25,26,27,28,29,31,32,34,36,37,38,39,40,41,42,43,44,45,46,51,52,54,56,57,58,59,60
9,10,11,12,13,14,15,16,17,18,19,20,21,22,23,24,25,26,27,28,29,30,31,32,33,34,35,36,37,38,41,42,43,44,45,50,51,52,54,56,57,58,59,60
9,10,11,12,13,14,15,16,17,18,19,20,21,22,23,24,25,26,27,28,29,30,31,32,33,34,35,36,38,39,41,42,43,44,45,50,51,52,54,56,57,58,59,60
9,10,20,21,22,23,24,25,26,27,28,29,30,36,37,38,40,41,42,43,44,45,50,51,52,54,56,57,58,59,60
9,10,20,21,22,23,24,29,30,31,32,33,34,35,37,38,40,41,42,43,44,45,46,50,51,52,54,56,57,58,59,60
10,20,21,22,23,24,25,26,27,28,29,30,31,35,36,37,38,39,40,41,42,43,44,45,46,50,52,54,55,56,57,58,59,60
9,10,11,12,13,14,15,16,17,18,19,20,21,22,23,24,25,26,27,28,29,30,31,32,33,34,37,38,39,40,41,42,43,44,45,51,52,54,55,56,57,58,59,60
9,10,11,12,13,14,15,16,17,18,19,20,21,22,23,24,29,30,31,32,33,34,35,37,38,40,41,42,43,44,45,46,51,52,54,55,56,57,58,59,60
3,5,10,11,12,13,14,15,16,17,18,19,20,21,22,23,24,25,26,27,28,29,30,31,32,33,34,35,37,38,39,40,41,42,43,44,45,50,51,52,54,55,56,57,58,59,60
9,10,20,21,22,23,24,25,26,27,28,30,31,32,34,37,38,39,40,41,42,43,44,45,46,50,51,52,54,55,56,57,58,59,60
10,11,12,13,14,15,16,17,18,19,20,21,22,23,24,25,26,27,28,29,30,31,32,33,34,35,36,37,38,39,40,41,42,43,44,45,47,48,50,51,52,54,55,56,57,58,59,60
