20
0,1,5,6,7,8,9,10,11,12,13
0,1,4,5,6,8,9,14
0,1,3,5,7,10,11,14
1,3,5,6,7,8,9,10,11,12,13,14
1,3,5,14,15
1,3,16
0,1,6,8,9,10,16
0,1,4,5,7,10,11,16
1,5,6,7,11,12,16
3,5,6,7,8,9,10,11,12,13,16
1,14,16
3,14,16
1,15,16
0,5,6,7,8,9,10,11,12,13,14,15,16
1,3,5,14,17
1,4,14,15,17
0,1,5,6,8,9,14,15,17
1,2,7,8,9,10,11,14,15,17
1,3,7,8,9,12,14,15,17
1,16,17
14,16,17
5,6,15,16,17
2,3,8,15,16,17
0,3,5,9,15,16,17
1,18
5,15,16,18
14,15,16,18
8,9,14,15,17,18
0,5,11,12,13,14,15,17,18
3,4,15,16,17,18
3,8,9,10,15,16,17,18
3,6,9,11,15,16,17,18
9,10,11,15,16,17,18
0,3,6,9,10,13,15,16,17,18
1,6,7,8,9,10,19
0,1,5,6,7,10,11,12,13,19
1,3,4,10,14,19
0,1,3,5,6,8,9,11,14,19
1,5,6,7,8,9,11,12,15,19
1,2,5,6,10,11,12,13,15,19
1,3,8,9,14,15,19
1,2,5,8,16,19
1,8,9,16,19
2,7,10,14,15,16,19
0,1,3,5,6,17,19
1,3,4,8,9,14,17,19
1,2,5,6,10,14,15,17,19
0,1,8,9,11,14,15,17,19
1,6,8,10,11,14,15,17,19
1,5,6,7,8,9,11,13,14,15,17,19
0,1,5,9,10,11,13,14,15,17,19
3,4,5,6,7,8,11,14,15,17,18,19
4,6,7,8,15,16,17,18,19
8,9,15,16,17,18,19
