94
2,10,11,13,14,91
2,9,10,12,13,14,15,18,26,28,91
2,9,11,13,14,15,18,19,26,28,91
2,5,6,9,10,13,14,15,18,19,26,28,37,38,91
2,9,10,13,14,15,18,19,23,25,26,27,28,32,34,35,40,41,91
2,9,10,13,14,15,18,19,26,28,37,38,40,41,91
2,9,10,13,14,15,18,19,26,28,37,38,42,43,91
2,9,10,13,14,15,18,19,20,26,28,44,45,91
0,1,2,9,11,13,14,15,18,23,25,26,27,28,32,34,35,44,45,91
2,9,10,13,14,15,18,26,28,37,38,44,45,91
2,9,10,13,14,16,26,28,36,37,38,44,45,91
2,9,13,14,15,18,26,28,36,37,38,44,45,91
2,10,13,14,15,18,26,28,37,38,46,47,91
2,9,11,13,14,15,18,26,28,37,38,46,47,91
2,9,10,13,14,15,26,28,48,91
2,9,11,13,14,15,18,26,28,48,91
2,9,11,13,14,15,19,23,25,26,27,28,32,34,35,48,91
0,1,5,6,9,10,11,13,14,15,18,19,23,25,26,27,28,32,34,35,48,91
0,1,2,9,13,14,15,18,19,20,23,25,26,27,28,32,34,35,48,91
0,1,2,11,13,14,15,18,19,20,23,25,26,27,28,32,34,35,48,91
2,9,10,13,14,17,18,19,22,23,25,26,27,28,32,34,35,40,41,44,45,48,91
2,10,13,14,37,38,40,41,44,45,48,91
2,10,13,14,46,47,48,91
2,5,6,9,10,13,14,15,18,19,26,28,49,91
2,3,4,5,6,9,10,13,14,29,36,37,38,40,41,42,43,49,91
2,9,13,14,36,37,38,44,45,49,91
2,9,10,13,14,15,18,23,25,26,27,28,32,34,35,42,43,44,45,49,91
0,1,2,3,4,5,6,9,10,13,14,15,18,23,25,26,27,28,29,32,34,35,44,45,46,47,49,91
2,10,13,14,36,37,38,40,41,44,45,46,47,49,91
2,5,6,9,10,13,14,28,29,48,49,91
2,9,10,13,14,29,36,37,38,48,49,91
0,1,9,10,11,12,13,14,15,18,19,23,25,26,27,28,32,34,35,40,41,48,49,91
2,5,6,10,13,14,15,18,19,26,28,36,37,38,42,43,48,49,91
0,1,2,5,6,10,13,14,15,18,19,23,25,26,27,28,32,34,35,40,41,42,43,48,49,91
2,9,10,12,13,14,15,26,28,50,91
2,9,10,13,14,15,18,26,28,50,91
2,9,11,13,14,15,18,26,28,50,91
2,5,6,9,13,14,15,18,23,25,26,27,28,32,34,35,50,91
0,1,2,3,4,5,6,9,10,13,14,18,19,23,25,26,27,28,32,34,35,50,91
2,10,13,14,37,38,50,91
2,9,11,13,14,18,19,26,28,37,38,50,91
2,9,11,13,14,36,37,38,50,91
2,9,12,13,14,36,37,38,50,91
2,15,18,19,26,28,36,37,38,50,91
0,1,2,9,13,14,15,18,23,25,26,27,28,32,34,35,36,37,38,50,91
2,9,10,13,14,15,22,26,28,40,41,50,91
2,9,10,13,14,18,19,23,25,26,27,28,32,34,35,40,41,50,91
0,1,2,11,13,14,15,18,19,20,23,25,26,27,28,32,34,35,40,41,50,91
2,5,6,42,43,50,91
2,9,12,13,14,28,42,43,50,91
2,9,10,13,14,15,26,28,42,43,50,91
2,9,13,14,15,18,19,26,28,37,38,42,43,50,91
2,9,13,14,44,45,50,91
2,11,13,14,15,18,19,26,28,44,45,50,91
0,1,9,10,13,14,15,18,19,20,23,25,26,27,28,32,34,35,36,37,38,40,41,44,45,50,91
2,9,10,13,14,15,23,25,26,27,28,32,34,35,46,47,50,91
2,5,6,10,13,14,48,50,91
2,11,13,14,48,50,91
2,5,6,12,13,14,48,50,91
2,9,10,12,13,14,18,26,28,48,50,91
2,9,13,14,15,18,26,28,48,50,91
2,10,13,14,15,18,26,28,48,50,91
2,10,13,14,15,26,28,32,34,35,48,50,91
2,9,10,13,14,18,19,23,25,26,27,28,32,34,35,48,50,91
0,1,9,10,11,13,14,15,18,19,23,25,26,27,28,32,34,35,48,50,91
2,12,13,14,15,18,19,23,25,26,27,28,32,34,35,48,50,91
0,1,2,9,10,13,14,18,22,23,25,26,27,28,29,32,34,35,48,50,91
2,9,13,14,36,37,38,40,41,48,50,91
0,1,5,6,9,10,11,13,14,15,17,18,23,25,26,27,28,32,34,35,36,37,38,40,41,48,50,91
0,1,9,10,11,13,14,15,16,18,23,25,26,27,28,32,34,35,44,45,48,50,91
0,1,9,10,11,13,14,15,18,20,23,25,26,27,28,32,34,35,44,45,48,50,91
0,1,9,10,11,13,14,15,18,20,23,25,26,27,28,32,34,35,46,47,48,50,91
0,1,9,10,11,13,14,15,18,23,25,26,27,28,32,34,35,42,43,46,47,48,50,91
0,1,9,10,11,13,14,15,18,23,25,26,27,28,32,34,35,36,37,38,44,45,46,47,48,50,91
2,9,10,13,14,22,26,28,49,50,91
0,1,2,11,13,14,15,18,23,25,26,27,28,32,34,35,49,50,91
0,1,2,10,13,14,15,18,19,23,25,26,27,28,32,34,35,49,50,91
0,1,2,9,13,14,15,17,18,19,23,25,26,27,28,32,34,35,49,50,91
2,9,11,13,14,15,26,28,37,38,49,50,91
2,15,18,19,25,26,27,28,34,35,37,38,49,50,91
2,9,13,14,15,18,23,25,26,27,28,32,34,35,37,38,49,50,91
2,9,13,14,15,18,26,28,36,37,38,49,50,91
0,1,2,9,13,14,15,18,23,25,26,27,28,32,34,35,40,41,49,50,91
2,9,11,13,14,42,43,49,50,91
2,9,13,14,15,18,26,28,37,38,42,43,49,50,91
2,9,10,13,14,28,29,40,41,42,43,49,50,91
2,9,10,13,14,28,40,41,46,47,49,50,91
2,9,13,14,36,37,38,40,41,42,43,46,47,49,50,91
2,9,10,13,14,18,19,26,28,48,49,50,91
0,1,2,9,10,13,14,18,20,23,25,26,27,28,32,34,35,48,49,50,91
0,1,9,10,13,14,15,18,19,20,23,25,26,27,28,32,34,35,48,49,50,91
2,9,13,14,15,26,28,37,38,48,49,50,91
0,1,9,11,12,13,14,15,23,25,26,27,28,32,34,35,37,38,48,49,50,91
0,1,9,10,11,13,14,15,18,20,23,25,26,27,28,32,34,35,36,37,38,48,49,50,91
2,10,13,14,40,41,48,49,50,91
0,1,9,10,11,13,14,15,18,23,25,26,27,28,32,34,35,36,37,38,40,41,48,49,50,91
2,10,13,14,42,43,48,49,50,91
2,10,13,14,44,45,48,49,50,91
0,1,2,15,18,23,25,26,27,28,32,34,35,44,45,48,49,50,91
0,1,9,10,11,13,14,15,18,23,25,26,27,28,32,34,35,44,45,48,49,50,91
0,1,9,10,11,13,14,15,18,23,25,26,27,28,32,34,35,36,37,38,46,47,48,49,50,91
0,1,9,10,11,13,14,15,18,23,25,26,27,28,32,34,35,40,41,46,47,48,49,50,91
0,1,5,6,9,10,11,12,13,14,15,18,19,23,25,26,27,28,32,34,35,36,37,38,50,67,68,91
0,1,9,10,11,13,14,15,18,20,23,25,26,27,28,32,34,35,48,50,67,68,91
0,1,9,10,11,13,14,15,18,23,25,26,27,28,32,34,35,46,47,48,50,67,68,91
0,1,2,9,10,13,14,15,19,23,25,26,27,28,32,34,35,50,52,53,54,57,58,59,60,61,62,63,64,65,66,67,68,71,72,75,76,85,86,91
2,10,13,14,48,90,91
2,11,13,14,48,90,91
0,1,2,5,6,9,13,14,15,18,19,22,23,25,26,27,28,32,34,35,42,43,44,45,48,49,90,91
2,12,13,14,48,50,90,91
2,9,13,14,15,26,28,48,50,90,91
0,1,5,6,9,10,11,12,13,14,15,17,18,23,25,26,27,28,32,34,35,36,37,38,48,50,90,91
2,42,43,48,50,90,91
2,37,38,44,45,48,50,90,91
0,1,9,10,11,13,14,15,18,23,25,26,27,28,32,34,35,36,37,38,44,45,48,50,90,91
0,1,9,10,11,13,14,15,18,23,25,26,27,28,32,34,35,37,38,46,47,48,50,90,91
0,1,5,6,9,10,11,13,14,15,18,23,25,26,27,28,32,34,35,40,41,46,47,48,50,90,91
0,1,5,6,9,10,11,13,14,15,18,23,25,26,27,28,32,34,35,48,49,50,90,91
2,5,6,15,18,19,20,23,25,26,27,28,32,34,35,48,49,50,90,91
2,9,10,13,14,15,18,26,28,34,35,37,38,51,52,91,92,93
2,9,10,13,14,15,18,19,20,23,25,26,27,28,32,34,35,42,43,51,52,91,92,93
2,10,12,13,14,15,17,18,19,26,28,36,37,38,42,43,48,51,52,91,92,93
2,3,4,5,6,9,13,14,15,18,19,23,25,26,27,28,32,34,35,44,45,48,51,52,91,92,93
2,9,10,13,14,15,18,26,28,49,51,52,91,92,93
2,11,13,14,15,17,18,26,28,36,37,38,44,45,48,49,51,52,91,92,93
2,5,6,9,13,14,15,18,19,26,28,32,34,35,50,51,52,91,92,93
2,9,13,14,15,18,19,23,25,26,27,28,32,34,35,50,51,52,91,92,93
2,9,10,13,14,15,20,23,25,26,27,28,32,34,35,50,51,52,91,92,93
2,15,18,19,23,25,26,27,28,32,34,35,37,38,50,51,52,91,92,93
2,9,13,14,15,18,23,25,26,27,28,32,34,35,36,37,38,50,51,52,91,92,93
2,9,13,14,15,18,26,28,37,38,40,41,50,51,52,91,92,93
2,5,6,10,13,14,15,17,18,23,25,26,27,28,32,34,35,44,45,50,51,52,91,92,93
2,9,10,13,14,18,23,25,26,27,28,32,34,35,48,50,51,52,91,92,93
2,9,13,14,15,18,19,26,28,37,38,49,50,51,52,91,92,93
2,3,4,5,6,11,13,14,15,18,19,26,28,37,38,49,50,51,52,91,92,93
2,9,12,13,14,15,26,28,32,34,35,48,49,50,51,52,91,92,93
2,9,10,13,14,15,18,19,20,26,28,51,52,53,54,91,92,93
2,9,10,13,14,15,17,18,19,23,25,26,27,28,37,38,51,52,53,54,91,92,93
2,9,10,13,14,15,18,19,26,28,36,37,38,51,52,53,54,91,92,93
2,9,11,13,14,15,18,23,25,26,27,28,32,34,35,36,37,38,51,52,53,54,91,92,93
2,9,10,13,14,15,18,19,22,23,25,26,27,28,32,34,35,46,47,51,52,53,54,91,92,93
2,9,10,13,14,15,18,19,23,25,26,27,28,32,34,35,44,45,46,47,51,52,53,54,91,92,93
2,11,13,14,15,18,19,26,28,32,34,35,44,45,48,51,52,53,54,91,92,93
2,9,13,14,15,18,19,26,28,49,51,52,53,54,91,92,93
2,3,4,5,6,11,13,14,15,18,19,23,25,26,27,28,32,34,35,37,38,48,49,51,52,53,54,91,92,93
2,9,13,14,15,18,20,23,25,26,27,28,32,34,35,36,37,38,40,41,48,49,51,52,53,54,91,92,93
2,9,11,13,14,15,18,23,25,26,27,50,51,52,53,54,91,92,93
2,5,6,9,13,14,15,18,22,26,28,50,51,52,53,54,91,92,93
2,9,13,14,15,18,19,20,26,28,37,38,50,51,52,53,54,91,92,93
2,9,10,13,14,18,19,26,28,48,50,51,52,53,54,91,92,93
2,5,6,11,12,13,14,15,18,22,23,25,26,27,28,32,34,35,36,37,38,49,50,51,52,53,54,91,92,93
2,15,18,19,22,23,25,26,27,28,32,34,35,40,41,44,45,48,49,50,51,52,53,54,91,92,93
2,5,6,9,10,13,14,15,26,28,49,50,51,52,57,58,91,92,93
2,9,10,13,14,15,18,23,25,26,27,28,32,34,35,44,45,46,47,51,52,65,66,91,92,93
2,3,4,5,6,9,13,14,15,17,18,19,26,28,37,38,50,51,52,65,66,91,92,93
2,9,13,14,15,18,19,25,26,27,28,34,35,49,50,51,52,65,66,91,92,93
2,9,13,14,15,18,26,28,37,38,49,50,51,52,65,66,91,92,93
2,9,13,14,15,18,19,26,28,42,43,49,50,51,52,65,66,91,92,93
2,10,13,14,15,18,19,20,26,28,36,37,38,48,49,51,52,53,54,65,66,91,92,93
2,11,13,14,15,18,19,20,22,25,26,27,28,34,35,40,41,42,43,50,51,52,53,54,65,66,91,92,93
2,15,17,18,19,22,23,25,26,27,28,32,34,35,42,43,48,50,51,52,53,54,65,66,91,92,93
2,9,11,13,14,15,18,23,25,26,27,28,32,34,35,37,38,51,52,53,54,57,58,65,66,91,92,93
0,1,2,9,10,13,14,15,18,19,23,25,26,27,28,32,34,35,44,45,51,52,63,64,65,66,91,92,93
0,1,2,9,10,13,14,15,18,19,23,25,26,27,28,32,34,35,46,47,51,52,63,64,65,66,91,92,93
0,1,9,10,11,13,14,15,18,23,25,26,27,28,32,34,35,36,37,38,46,47,48,50,51,52,63,64,65,66,91,92,93
0,1,2,5,6,9,11,13,14,15,18,22,23,25,26,27,28,32,34,35,49,51,52,53,54,63,64,65,66,91,92,93
0,1,2,9,13,14,15,18,23,25,26,27,28,32,34,35,37,38,50,51,52,53,54,63,64,65,66,91,92,93
0,1,9,10,11,13,14,15,18,19,23,25,26,27,28,32,34,35,44,45,50,51,52,53,54,63,64,65,66,91,92,93
0,1,9,10,11,13,14,15,18,23,25,26,27,28,32,34,35,36,37,38,48,49,50,51,52,53,54,63,64,65,66,91,92,93
2,9,11,13,14,15,18,23,25,26,27,28,32,34,35,37,38,44,45,51,52,69,70,91,92,93
0,1,5,6,9,10,11,13,14,15,18,19,23,25,26,27,28,32,34,35,36,37,38,44,45,50,51,52,62,65,66,67,68,69,70,91,92,93
0,1,9,10,11,13,14,15,18,23,25,26,27,28,32,34,35,36,37,38,44,45,46,47,50,51,52,62,65,66,67,68,69,70,91,92,93
2,9,10,13,14,15,18,23,25,26,27,28,32,34,35,51,52,71,72,91,92,93
2,9,11,12,13,14,15,18,26,28,44,45,51,52,71,72,91,92,93
2,9,10,13,14,15,18,19,26,28,44,45,51,52,71,72,91,92,93
2,9,13,14,15,18,19,26,28,44,45,48,51,52,71,72,91,92,93
2,3,4,5,6,9,10,12,13,14,18,19,26,28,50,51,52,71,72,91,92,93
2,11,13,14,15,18,19,26,28,50,51,52,71,72,91,92,93
2,5,6,11,13,14,15,18,23,25,26,27,28,32,34,35,36,37,38,40,41,44,45,50,51,52,71,72,91,92,93
2,10,13,14,15,18,19,26,28,42,43,44,45,50,51,52,71,72,91,92,93
2,9,13,14,15,18,23,25,26,27,28,32,34,35,49,50,51,52,71,72,91,92,93
2,9,11,13,14,18,22,26,28,37,38,49,50,51,52,71,72,91,92,93
2,9,13,14,15,18,19,25,26,27,28,34,35,40,41,49,50,51,52,71,72,91,92,93
2,9,11,13,14,15,18,23,25,26,27,28,32,34,35,37,38,42,43,49,51,52,53,54,63,64,71,72,91,92,93
2,9,11,13,14,18,23,25,26,27,28,32,34,35,37,38,50,51,52,53,54,63,64,71,72,91,92,93
2,5,6,10,12,13,14,15,18,19,23,25,26,27,28,32,34,35,44,45,50,51,52,65,66,71,72,91,92,93
2,10,13,14,15,18,19,23,25,26,27,28,32,34,35,44,45,50,51,52,53,54,65,66,71,72,91,92,93
2,3,4,5,6,9,13,14,15,18,19,22,26,28,46,47,49,50,51,52,57,58,65,66,71,72,91,92,93
2,9,10,13,14,15,17,18,19,22,26,28,51,52,53,54,57,58,65,66,71,72,91,92,93
2,9,11,13,14,15,18,26,28,37,38,44,45,49,51,52,67,68,71,72,91,92,93
2,9,11,13,14,15,18,22,23,25,26,27,28,32,34,35,40,41,42,43,44,45,51,52,53,54,67,68,71,72,91,92,93
2,3,4,5,6,9,11,12,13,14,15,18,23,25,26,27,28,32,34,35,37,38,42,43,49,51,52,57,58,65,66,67,68,71,72,91,92,93
2,9,13,14,15,18,19,25,26,27,28,34,35,37,38,50,51,52,53,54,57,58,65,66,67,68,71,72,91,92,93
2,5,6,9,13,14,18,19,22,23,25,26,27,28,32,34,35,37,38,48,49,50,51,52,53,54,57,58,65,66,67,68,71,72,91,92,93
0,1,2,5,6,11,13,14,15,18,20,23,25,26,27,28,32,34,35,37,38,40,41,50,51,52,59,60,65,66,67,68,71,72,91,92,93
0,1,9,11,12,13,14,15,18,19,20,23,25,26,27,28,32,34,35,37,38,44,45,48,50,51,52,59,60,65,66,67,68,71,72,91,92,93
0,1,9,10,11,13,14,15,18,20,23,25,26,27,28,32,34,35,37,38,40,41,44,45,49,50,51,52,59,60,65,66,67,68,71,72,91,92,93
0,1,2,11,12,13,14,15,17,18,23,25,26,27,28,32,34,35,37,38,40,41,44,45,50,51,52,53,54,55,56,59,60,65,66,67,68,71,72,91,92,93
2,5,6,9,13,14,18,19,22,25,26,27,28,29,34,35,36,37,38,48,49,50,51,52,71,72,75,76,91,92,93
2,9,10,12,13,14,17,18,23,25,26,27,28,32,34,35,46,47,49,50,51,52,53,54,65,66,67,68,71,72,79,80,81,82,91,92,93
0,1,9,10,11,13,14,15,18,19,23,25,26,27,28,32,34,35,37,38,44,45,46,47,49,50,51,52,53,54,59,60,65,66,67,68,71,72,79,80,81,82,91,92,93
0,1,9,10,11,13,14,15,18,23,25,26,27,28,32,34,35,40,41,44,45,46,47,48,50,51,52,59,60,61,62,65,66,85,86,91,92,93
0,1,2,3,4,5,6,9,13,14,15,18,19,23,25,26,27,28,32,34,35,36,37,38,48,51,52,53,54,59,60,61,62,65,66,85,86,91,92,93
0,1,5,6,9,10,11,13,14,15,18,19,23,25,26,27,28,32,34,35,44,45,49,50,51,52,53,54,59,60,61,62,65,66,85,86,91,92,93
0,1,9,10,11,13,14,15,18,23,25,26,27,28,32,34,35,46,47,48,49,50,51,52,53,54,59,60,61,62,65,66,85,86,91,92,93
0,1,2,9,10,13,14,15,18,23,25,26,27,28,32,34,35,44,45,51,52,57,58,59,60,61,62,65,66,85,86,91,92,93
0,1,9,10,11,13,14,15,18,23,25,26,27,28,32,34,35,48,50,51,52,57,58,59,60,61,62,65,66,85,86,91,92,93
0,1,2,10,13,14,15,18,23,25,26,27,28,32,34,35,40,41,44,45,49,50,51,52,57,58,59,60,61,62,65,66,85,86,91,92,93
0,1,9,10,11,13,14,15,18,23,25,26,27,28,32,34,35,50,51,52,53,54,57,58,59,60,61,62,65,66,85,86,91,92,93
0,1,9,10,11,13,14,15,18,19,23,25,26,27,28,32,34,35,36,37,38,46,47,49,50,51,52,53,54,59,60,61,62,63,64,65,66,85,86,91,92,93
2,3,4,5,6,9,10,13,14,15,18,19,23,25,26,27,28,32,34,35,51,52,57,58,59,60,61,62,63,64,65,66,85,86,91,92,93
2,3,4,5,6,9,11,13,14,15,18,25,26,27,28,34,35,36,37,38,51,52,57,58,59,60,61,62,63,64,65,66,85,86,91,92,93
0,1,2,3,4,5,6,9,12,13,14,15,17,18,19,23,25,26,27,28,32,34,35,48,51,52,57,58,59,60,61,62,63,64,65,66,85,86,91,92,93
0,1,2,3,4,5,6,9,11,13,14,15,18,23,25,26,27,28,32,34,35,37,38,49,51,52,57,58,59,60,61,62,63,64,65,66,85,86,91,92,93
0,1,2,3,4,5,6,9,13,14,15,18,23,25,26,27,28,32,34,35,44,45,49,51,52,57,58,59,60,61,62,63,64,65,66,85,86,91,92,93
0,1,2,3,4,5,6,9,13,14,15,18,19,23,25,26,27,28,32,34,35,48,49,51,52,57,58,59,60,61,62,63,64,65,66,85,86,91,92,93
2,3,4,5,6,9,10,13,14,18,23,25,26,27,28,32,34,35,44,45,48,49,51,52,57,58,59,60,61,62,63,64,65,66,85,86,91,92,93
2,3,4,5,6,9,13,14,15,18,19,26,28,37,38,50,51,52,57,58,59,60,61,62,63,64,65,66,85,86,91,92,93
2,3,4,5,6,44,45,50,51,52,57,58,59,60,61,62,63,64,65,66,85,86,91,92,93
0,1,3,4,5,6,9,10,11,13,14,15,18,19,23,25,26,27,28,32,34,35,36,37,38,44,45,46,47,50,51,52,57,58,59,60,61,62,63,64,65,66,85,86,91,92,93
0,1,3,4,5,6,9,10,11,13,14,18,19,23,25,26,27,28,32,34,35,48,50,51,52,57,58,59,60,61,62,63,64,65,66,85,86,91,92,93
2,3,4,5,6,11,13,14,49,50,51,52,57,58,59,60,61,62,63,64,65,66,85,86,91,92,93
0,1,2,5,6,9,11,13,14,18,23,25,26,27,28,32,34,35,49,50,51,52,57,58,59,60,61,62,63,64,65,66,85,86,91,92,93
0,1,3,4,5,6,9,10,11,12,13,14,15,18,19,20,23,25,26,27,28,32,34,35,36,37,38,44,45,49,50,51,52,57,58,59,60,61,62,63,64,65,66,85,86,91,92,93
0,1,3,4,5,6,9,10,11,13,14,15,18,19,23,25,26,27,28,32,34,35,40,41,44,45,49,50,51,52,57,58,59,60,61,62,63,64,65,66,85,86,91,92,93
0,1,3,4,5,6,9,10,11,13,14,15,18,19,23,25,26,27,28,32,34,35,46,47,49,50,51,52,57,58,59,60,61,62,63,64,65,66,85,86,91,92,93
0,1,5,6,9,10,11,13,14,15,18,19,23,25,26,27,28,32,34,35,42,43,46,47,49,50,51,52,57,58,59,60,61,62,63,64,65,66,85,86,91,92,93
0,1,3,4,5,6,9,11,13,14,15,18,19,23,25,26,27,28,32,34,35,48,49,50,51,52,57,58,59,60,61,62,63,64,65,66,85,86,91,92,93
0,1,2,15,18,23,25,26,27,28,32,34,35,36,37,38,48,49,50,51,52,57,58,59,60,61,62,63,64,65,66,85,86,91,92,93
0,1,2,9,13,14,18,19,23,25,26,27,28,32,34,35,36,37,38,48,49,50,51,52,57,58,59,60,61,62,63,64,65,66,85,86,91,92,93
0,1,2,3,4,5,6,11,13,14,15,18,19,22,23,25,26,27,28,32,34,35,44,45,51,52,53,54,57,58,59,60,61,62,63,64,65,66,85,86,91,92,93
0,1,2,3,4,5,6,11,13,14,15,17,18,22,23,25,26,27,28,29,32,34,35,36,37,38,48,51,52,53,54,57,58,59,60,61,62,63,64,65,66,85,86,91,92,93
2,3,4,5,6,11,13,14,15,18,19,23,25,26,27,28,32,34,35,37,38,40,41,48,51,52,53,54,57,58,59,60,61,62,63,64,65,66,85,86,91,92,93
0,1,2,3,4,5,6,9,13,14,15,18,23,25,26,27,28,32,34,35,37,38,48,49,51,52,53,54,57,58,59,60,61,62,63,64,65,66,85,86,91,92,93
0,1,2,11,13,14,15,18,19,23,25,26,27,28,32,34,35,37,38,48,49,51,52,53,54,57,58,59,60,61,62,63,64,65,66,85,86,91,92,93
2,3,4,5,6,50,51,52,53,54,57,58,59,60,61,62,63,64,65,66,85,86,91,92,93
0,1,2,11,13,14,15,17,18,23,25,26,27,28,32,34,35,37,38,40,41,44,45,50,51,52,53,54,57,58,59,60,61,62,63,64,65,66,85,86,91,92,93
0,1,2,11,13,14,15,18,23,25,26,27,28,32,34,35,36,37,38,42,43,44,45,50,51,52,53,54,57,58,59,60,61,62,63,64,65,66,85,86,91,92,93
0,1,10,11,13,14,15,18,19,23,25,26,27,28,32,34,35,44,45,48,49,50,51,52,53,54,57,58,59,60,61,62,63,64,65,66,85,86,91,92,93
0,1,3,4,5,6,9,11,13,14,15,18,23,25,26,27,28,32,33,34,35,36,37,38,44,45,48,49,50,51,52,53,54,57,58,59,60,61,62,63,64,65,66,85,86,91,92,93
2,3,4,5,6,9,11,13,14,15,20,23,25,26,27,28,32,34,35,48,51,52,57,58,59,60,61,62,63,64,65,66,67,68,85,86,91,92,93
0,1,3,4,5,6,9,10,11,13,14,15,18,19,20,23,25,26,27,28,32,34,35,40,41,44,45,50,51,52,57,58,59,60,61,62,63,64,65,66,67,68,85,86,91,92,93
2,3,4,5,6,9,13,14,15,18,23,25,26,27,28,32,34,35,37,38,42,43,44,45,48,51,52,53,54,57,58,59,60,61,62,63,64,65,66,67,68,85,86,91,92,93
0,1,2,10,13,14,15,18,19,23,25,26,27,28,32,34,35,36,37,38,40,41,48,49,51,52,53,54,57,58,59,60,61,62,63,64,65,66,67,68,85,86,91,92,93
2,3,4,5,6,9,10,13,14,18,22,26,28,36,37,38,42,43,48,49,51,52,53,54,57,58,59,60,61,62,63,64,65,66,67,68,85,86,91,92,93
0,1,2,9,13,14,15,18,23,25,26,27,28,32,34,35,49,50,51,52,53,54,57,58,59,60,61,62,63,64,65,66,67,68,85,86,91,92,93
0,1,2,9,11,12,13,14,18,19,23,25,26,27,28,32,34,35,49,50,51,52,53,54,57,58,59,60,61,62,63,64,65,66,67,68,85,86,91,92,93
0,1,2,5,6,15,18,19,22,23,25,26,27,28,32,34,35,48,49,50,51,52,53,54,57,58,59,60,61,62,63,64,65,66,67,68,85,86,91,92,93
0,1,9,10,11,13,14,15,18,19,23,25,26,27,28,32,34,35,36,37,38,40,41,50,51,52,57,58,59,60,61,62,63,64,65,66,67,68,69,70,85,86,91,92,93
0,1,9,11,12,13,14,15,18,19,20,23,25,26,27,28,32,34,35,36,37,38,40,41,44,45,48,50,51,52,57,58,59,60,61,62,63,64,65,66,67,68,69,70,85,86,91,92,93
0,1,9,10,11,13,14,15,18,19,23,25,26,27,28,32,34,35,36,37,38,44,45,49,50,51,52,57,58,59,60,61,62,63,64,65,66,67,68,69,70,85,86,91,92,93
0,1,9,11,13,14,15,18,23,25,26,27,28,32,34,35,44,45,48,49,50,51,52,53,54,57,58,59,60,61,62,63,64,65,66,67,68,69,70,85,86,91,92,93
0,1,5,6,9,11,12,13,14,15,18,19,23,25,26,27,28,32,34,35,36,37,38,44,45,48,50,51,52,57,58,59,60,61,62,63,64,65,66,67,71,85,86,91,92,93
0,1,9,11,13,14,15,18,22,23,25,26,27,28,32,34,35,36,37,38,42,43,48,50,51,52,53,54,57,58,59,60,61,62,63,64,65,66,67,71,85,86,91,92,93
0,1,2,9,13,14,15,18,23,25,26,27,28,32,34,35,42,43,50,51,52,57,58,59,60,61,62,63,64,65,66,67,68,71,85,86,91,92,93
0,1,9,10,11,12,13,14,15,18,23,25,26,27,28,32,34,35,36,37,38,40,41,44,45,46,47,49,50,51,52,57,58,59,60,61,62,63,64,65,66,67,68,71,85,86,91,92,93
0,1,3,4,5,6,9,10,11,13,14,15,17,23,25,26,27,28,32,34,35,36,37,38,48,50,51,52,59,60,61,62,63,64,65,66,71,72,85,86,91,92,93
0,1,9,10,11,13,14,15,18,23,25,26,27,28,32,34,35,36,37,38,48,50,51,52,59,60,61,62,63,64,65,66,71,72,85,86,91,92,93
0,1,9,10,11,13,14,15,18,23,25,26,27,28,32,34,35,44,45,48,50,51,52,59,60,61,62,63,64,65,66,71,72,85,86,91,92,93
0,1,5,6,9,10,11,13,14,15,18,23,25,26,27,28,32,34,35,48,49,50,51,52,59,60,61,62,63,64,65,66,71,72,85,86,91,92,93
0,1,9,10,11,13,14,15,18,23,25,26,27,28,32,34,35,37,38,48,49,50,51,52,59,60,61,62,63,64,65,66,71,72,85,86,91,92,93
0,1,2,9,11,13,14,15,18,23,25,26,27,28,32,34,35,36,37,38,51,52,57,58,59,60,61,62,63,64,65,66,71,72,85,86,91,92,93
0,1,2,5,6,9,11,13,14,15,18,23,25,26,27,28,32,34,35,37,38,40,41,51,52,57,58,59,60,61,62,63,64,65,66,71,72,85,86,91,92,93
2,3,4,5,6,9,11,13,14,15,18,23,25,26,27,28,32,34,35,37,38,49,51,52,57,58,59,60,61,62,63,64,65,66,71,72,85,86,91,92,93
0,1,2,9,13,14,15,18,19,23,25,26,27,28,32,34,35,36,37,38,49,51,52,57,58,59,60,61,62,63,64,65,66,71,72,85,86,91,92,93
2,3,4,5,6,11,13,14,28,50,51,52,57,58,59,60,61,62,63,64,65,66,71,72,85,86,91,92,93
2,5,6,9,10,13,14,15,23,25,26,27,28,32,34,35,50,51,52,57,58,59,60,61,62,63,64,65,66,71,72,85,86,91,92,93
0,1,2,9,13,14,15,18,23,25,26,27,28,32,34,35,50,51,52,57,58,59,60,61,62,63,64,65,66,71,72,85,86,91,92,93
0,1,3,4,5,6,9,10,11,12,13,14,15,18,20,23,25,26,27,28,32,34,35,36,37,38,50,51,52,57,58,59,60,61,62,63,64,65,66,71,72,85,86,91,92,93
0,1,2,10,13,14,15,18,19,23,25,26,27,28,32,34,35,44,45,50,51,52,57,58,59,60,61,62,63,64,65,66,71,72,85,86,91,92,93
2,3,4,5,6,9,13,14,46,47,50,51,52,57,58,59,60,61,62,63,64,65,66,71,72,85,86,91,92,93
0,1,3,4,5,6,9,10,11,13,14,15,17,18,23,25,26,27,28,32,34,35,36,37,38,46,47,50,51,52,57,58,59,60,61,62,63,64,65,66,71,72,85,86,91,92,93
0,1,9,10,11,13,14,15,18,23,25,26,27,28,32,34,35,44,45,46,47,50,51,52,57,58,59,60,61,62,63,64,65,66,71,72,85,86,91,92,93
0,1,9,11,13,14,15,18,19,23,25,26,27,28,32,34,35,36,37,38,48,50,51,52,57,58,59,60,61,62,63,64,65,66,71,72,85,86,91,92,93
2,3,4,5,6,49,50,51,52,57,58,59,60,61,62,63,64,65,66,71,72,85,86,91,92,93
0,1,3,4,5,6,9,10,11,13,14,15,18,23,25,26,27,28,32,34,35,49,50,51,52,57,58,59,60,61,62,63,64,65,66,71,72,85,86,91,92,93
0,1,9,10,11,13,14,15,17,18,19,23,25,26,27,28,32,34,35,49,50,51,52,57,58,59,60,61,62,63,64,65,66,71,72,85,86,91,92,93
0,1,9,10,11,13,14,15,18,23,25,26,27,28,32,34,35,40,41,49,50,51,52,57,58,59,60,61,62,63,64,65,66,71,72,85,86,91,92,93
0,1,9,10,11,13,14,15,18,20,23,25,26,27,28,32,34,35,36,37,38,44,45,49,50,51,52,57,58,59,60,61,62,63,64,65,66,71,72,85,86,91,92,93
0,1,2,9,10,13,14,15,18,19,23,25,26,27,32,34,35,48,49,50,51,52,57,58,59,60,61,62,63,64,65,66,71,72,85,86,91,92,93
0,1,9,10,13,14,15,18,19,23,25,26,27,28,32,34,35,36,37,38,40,41,42,43,48,49,50,51,52,57,58,59,60,61,62,63,64,65,66,71,72,85,86,91,92,93
0,1,3,4,5,6,10,11,13,14,15,18,23,25,26,27,28,32,34,35,46,47,48,49,50,51,52,57,58,59,60,61,62,63,64,65,66,71,72,85,86,91,92,93
0,1,2,3,4,5,6,9,11,13,14,15,18,23,25,26,27,28,32,34,35,51,52,53,54,57,58,59,60,61,62,63,64,65,66,71,72,85,86,91,92,93
2,3,4,5,6,9,11,13,14,15,26,28,37,38,48,51,52,53,54,57,58,59,60,61,62,63,64,65,66,71,72,85,86,91,92,93
0,1,2,9,13,14,15,18,19,23,25,26,27,28,32,34,35,36,37,38,48,51,52,53,54,57,58,59,60,61,62,63,64,65,66,71,72,85,86,91,92,93
0,1,9,10,11,13,14,15,18,19,23,25,26,27,28,32,34,35,40,41,44,45,48,51,52,53,54,57,58,59,60,61,62,63,64,65,66,71,72,85,86,91,92,93
0,1,2,5,6,10,13,14,15,18,23,25,26,27,28,32,34,35,50,51,52,53,54,57,58,59,60,61,62,63,64,65,66,71,72,85,86,91,92,93
0,1,2,5,6,11,13,14,15,18,23,25,26,27,28,32,34,35,50,51,52,53,54,57,58,59,60,61,62,63,64,65,66,71,72,85,86,91,92,93
0,1,2,9,10,13,14,17,18,19,23,25,26,27,28,32,34,35,50,51,52,53,54,57,58,59,60,61,62,63,64,65,66,71,72,85,86,91,92,93
0,1,2,11,13,14,15,18,20,23,25,26,27,28,32,34,35,36,37,38,46,47,50,51,52,53,54,57,58,59,60,61,62,63,64,65,66,71,72,85,86,91,92,93
0,1,2,9,13,14,18,19,23,25,26,27,28,32,34,35,36,37,38,48,50,51,52,53,54,57,58,59,60,61,62,63,64,65,66,71,72,85,86,91,92,93
0,1,9,10,13,14,15,18,19,23,25,26,27,28,32,34,35,36,37,38,48,50,51,52,53,54,57,58,59,60,61,62,63,64,65,66,71,72,85,86,91,92,93
0,1,2,9,11,12,13,14,15,19,23,25,26,27,28,32,34,35,49,50,51,52,53,54,57,58,59,60,61,62,63,64,65,66,71,72,85,86,91,92,93
0,1,2,15,18,19,22,23,25,26,27,28,32,34,35,44,45,49,50,51,52,53,54,57,58,59,60,61,62,63,64,65,66,71,72,85,86,91,92,93
0,1,3,4,5,6,9,11,13,14,15,18,23,25,26,27,28,32,34,35,36,37,38,44,45,49,50,51,52,53,54,57,58,59,60,61,62,63,64,65,66,71,72,85,86,91,92,93
0,1,9,10,13,14,15,16,18,19,22,23,25,26,27,28,32,34,35,46,47,48,49,50,51,52,53,54,57,58,59,60,61,62,63,64,65,66,71,72,85,86,91,92,93
0,1,2,9,13,14,15,18,23,25,26,27,28,32,34,35,42,43,50,51,52,59,60,61,62,65,66,67,68,71,72,85,86,91,92,93
0,1,5,6,9,10,11,13,14,15,18,23,25,26,27,28,32,34,35,48,50,51,52,59,60,61,62,65,66,67,68,71,72,85,86,91,92,93
0,1,5,6,9,10,11,13,14,15,18,23,25,26,27,28,32,34,35,40,41,42,43,44,45,49,50,51,52,59,60,61,62,65,66,67,68,71,72,85,86,91,92,93
0,1,10,11,13,14,15,17,18,19,23,25,26,27,28,32,34,35,42,43,44,45,46,47,48,49,50,51,52,59,60,61,62,65,66,67,68,71,72,85,86,91,92,93
0,1,2,9,11,13,14,15,18,23,25,26,27,28,32,34,35,36,37,38,51,52,59,60,61,62,63,64,65,66,67,68,71,72,85,86,91,92,93
0,1,2,5,6,9,13,14,15,18,19,23,25,26,27,28,32,34,35,37,38,42,43,48,51,52,59,60,61,62,63,64,65,66,67,68,71,72,85,86,91,92,93
0,1,2,9,13,14,15,18,23,25,26,27,28,32,34,35,37,38,50,51,52,59,60,61,62,63,64,65,66,67,68,71,72,85,86,91,92,93
0,1,2,10,12,13,14,15,18,19,23,25,26,27,28,32,34,35,44,45,50,51,52,59,60,61,62,63,64,65,66,67,68,71,72,85,86,91,92,93
0,1,2,15,18,19,23,25,26,27,28,32,34,35,40,41,44,45,48,50,51,52,59,60,61,62,63,64,65,66,67,68,71,72,85,86,91,92,93
0,1,9,10,11,13,14,15,18,19,23,25,26,27,28,32,34,35,36,37,38,40,41,44,45,49,50,51,52,59,60,61,62,63,64,65,66,67,68,71,72,85,86,91,92,93
0,1,9,10,11,12,13,14,15,18,19,23,25,26,27,28,32,34,35,36,37,38,42,43,44,45,46,47,49,50,51,52,59,60,61,62,63,64,65,66,67,68,71,72,85,86,91,92,93
0,1,9,10,13,14,15,18,19,23,25,26,27,28,32,34,35,42,43,48,49,50,51,52,59,60,61,62,63,64,65,66,67,68,71,72,85,86,91,92,93
0,1,9,10,13,14,15,18,19,23,25,26,27,28,32,34,35,36,37,38,44,45,48,49,50,51,52,59,60,61,62,63,64,65,66,67,68,71,72,85,86,91,92,93
0,1,9,10,13,14,15,18,23,25,26,27,28,32,34,35,36,37,38,40,41,42,43,44,45,48,49,50,51,52,59,60,61,62,63,64,65,66,67,68,71,72,85,86,91,92,93
0,1,2,9,11,13,14,15,18,23,25,26,27,28,32,34,35,51,52,57,58,59,60,61,62,63,64,65,66,67,68,71,72,85,86,91,92,93
2,3,4,5,6,9,11,13,14,15,26,28,48,51,52,57,58,59,60,61,62,63,64,65,66,67,68,71,72,85,86,91,92,93
2,3,4,5,6,9,11,13,14,18,19,23,25,26,27,28,34,35,37,38,48,51,52,57,58,59,60,61,62,63,64,65,66,67,68,71,72,85,86,91,92,93
0,1,2,3,4,5,6,11,13,14,15,18,19,23,25,26,27,28,32,34,35,36,37,38,44,45,48,51,52,57,58,59,60,61,62,63,64,65,66,67,68,71,72,85,86,91,92,93
0,1,9,10,11,13,14,15,18,19,20,23,25,26,27,28,32,34,35,36,37,38,44,45,48,51,52,57,58,59,60,61,62,63,64,65,66,67,68,71,72,85,86,91,92,93
0,1,9,10,11,13,14,15,18,23,25,26,27,28,32,34,35,40,41,44,45,48,51,52,57,58,59,60,61,62,63,64,65,66,67,68,71,72,85,86,91,92,93
0,1,3,4,5,6,9,10,11,13,14,15,18,23,25,26,27,28,32,34,35,36,37,38,48,49,51,52,57,58,59,60,61,62,63,64,65,66,67,68,71,72,85,86,91,92,93
0,1,9,10,11,13,14,15,18,19,20,23,25,26,27,28,32,34,35,36,37,38,48,49,51,52,57,58,59,60,61,62,63,64,65,66,67,68,71,72,85,86,91,92,93
0,1,2,3,4,5,6,11,13,14,15,18,19,23,25,26,27,28,32,34,35,36,37,38,42,43,48,49,51,52,57,58,59,60,61,62,63,64,65,66,67,68,71,72,85,86,91,92,93
2,3,4,5,6,10,13,14,15,18,19,23,25,26,27,28,32,34,35,44,45,48,49,51,52,57,58,59,60,61,62,63,64,65,66,67,68,71,72,85,86,91,92,93
0,1,9,10,11,13,14,15,18,19,20,23,25,26,27,28,32,34,35,44,45,46,47,48,49,51,52,57,58,59,60,61,62,63,64,65,66,67,68,71,72,85,86,91,92,93
2,3,4,5,6,50,51,52,57,58,59,60,61,62,63,64,65,66,67,68,71,72,85,86,91,92,93
0,1,2,5,6,10,13,14,15,18,19,23,25,26,27,28,32,34,35,50,51,52,57,58,59,60,61,62,63,64,65,66,67,68,71,72,85,86,91,92,93
0,1,9,10,11,13,14,15,18,19,20,23,25,26,27,28,32,34,35,36,37,38,50,51,52,57,58,59,60,61,62,63,64,65,66,67,68,71,72,85,86,91,92,93
0,1,5,6,9,10,11,13,14,15,18,19,22,23,25,26,27,28,32,34,35,36,37,38,50,51,52,57,58,59,60,61,62,63,64,65,66,67,68,71,72,85,86,91,92,93
0,1,3,4,5,6,9,10,11,13,14,15,18,23,25,26,27,28,32,34,35,36,37,38,40,41,50,51,52,57,58,59,60,61,62,63,64,65,66,67,68,71,72,85,86,91,92,93
0,1,2,11,13,14,15,18,20,23,25,26,27,28,32,34,35,36,37,38,40,41,50,51,52,57,58,59,60,61,62,63,64,65,66,67,68,71,72,85,86,91,92,93
0,1,5,6,9,10,11,13,14,15,18,23,25,26,27,28,32,34,35,36,37,38,42,43,50,51,52,57,58,59,60,61,62,63,64,65,66,67,68,71,72,85,86,91,92,93
0,1,9,10,11,13,14,15,18,23,25,26,27,28,32,34,35,44,45,50,51,52,57,58,59,60,61,62,63,64,65,66,67,68,71,72,85,86,91,92,93
0,1,2,11,12,13,14,15,18,22,23,25,26,27,28,32,34,35,37,38,44,45,50,51,52,57,58,59,60,61,62,63,64,65,66,67,68,71,72,85,86,91,92,93
0,1,2,11,13,14,15,18,23,25,26,27,28,32,34,35,42,43,44,45,50,51,52,57,58,59,60,61,62,63,64,65,66,67,68,71,72,85,86,91,92,93
0,1,2,10,13,14,15,18,19,23,25,26,27,28,32,34,35,42,43,46,47,50,51,52,57,58,59,60,61,62,63,64,65,66,67,68,71,72,85,86,91,92,93
0,1,2,9,13,14,15,17,23,25,26,27,28,32,34,35,36,37,38,48,50,51,52,57,58,59,60,61,62,63,64,65,66,67,68,71,72,85,86,91,92,93
0,1,2,15,18,23,25,26,27,28,32,34,35,36,37,38,48,50,51,52,57,58,59,60,61,62,63,64,65,66,67,68,71,72,85,86,91,92,93
0,1,5,6,9,10,12,13,14,15,18,19,23,25,26,27,28,32,34,35,36,37,38,44,45,48,50,51,52,57,58,59,60,61,62,63,64,65,66,67,68,71,72,85,86,91,92,93
0,1,9,10,11,13,14,15,18,23,25,26,27,28,32,34,35,36,37,38,49,50,51,52,57,58,59,60,61,62,63,64,65,66,67,68,71,72,85,86,91,92,93
0,1,2,5,6,10,13,14,15,18,23,25,26,27,28,32,34,35,44,45,49,50,51,52,57,58,59,60,61,62,63,64,65,66,67,68,71,72,85,86,91,92,93
0,1,2,10,13,14,15,18,23,25,26,27,28,32,34,35,46,47,49,50,51,52,57,58,59,60,61,62,63,64,65,66,67,68,71,72,85,86,91,92,93
0,1,9,10,11,13,14,15,18,19,23,25,26,27,28,32,34,35,46,47,49,50,51,52,57,58,59,60,61,62,63,64,65,66,67,68,71,72,85,86,91,92,93
0,1,2,5,6,9,13,14,18,19,20,23,25,26,27,28,32,34,35,48,49,50,51,52,57,58,59,60,61,62,63,64,65,66,67,68,71,72,85,86,91,92,93
0,1,2,9,13,14,18,19,23,25,26,27,28,32,34,35,37,38,48,49,50,51,52,57,58,59,60,61,62,63,64,65,66,67,68,71,72,85,86,91,92,93
0,1,2,9,13,14,18,23,25,26,27,28,32,34,35,36,37,38,48,49,50,51,52,57,58,59,60,61,62,63,64,65,66,67,68,71,72,85,86,91,92,93
0,1,5,6,9,10,13,14,15,18,23,25,26,27,28,32,34,35,44,45,48,49,50,51,52,57,58,59,60,61,62,63,64,65,66,67,68,71,72,85,86,91,92,93
0,1,9,11,13,14,15,18,23,25,26,27,28,32,34,35,44,45,48,49,50,51,52,57,58,59,60,61,62,63,64,65,66,67,68,71,72,85,86,91,92,93
0,1,9,10,11,13,14,15,19,20,23,25,26,27,28,32,34,35,36,37,38,46,47,48,49,50,51,52,57,58,59,60,61,62,63,64,65,66,67,68,71,72,85,86,91,92,93
0,1,9,10,13,14,15,18,19,23,25,26,27,28,32,34,35,36,37,38,40,41,46,47,48,49,50,51,52,57,58,59,60,61,62,63,64,65,66,67,68,71,72,85,86,91,92,93
0,1,9,10,13,14,15,18,20,23,25,26,27,28,32,34,35,44,45,46,47,48,49,50,51,52,57,58,59,60,61,62,63,64,65,66,67,68,71,72,85,86,91,92,93
2,3,4,5,6,10,13,14,51,52,53,54,57,58,59,60,61,62,63,64,65,66,67,68,71,72,85,86,91,92,93
0,1,2,9,13,14,15,18,23,25,26,27,28,32,34,35,36,37,38,40,41,49,51,52,53,54,57,58,59,60,61,62,63,64,65,66,67,68,71,72,85,86,91,92,93
0,1,2,9,10,13,14,18,19,20,22,23,25,26,27,28,32,34,35,36,37,38,42,43,48,49,51,52,53,54,57,58,59,60,61,62,63,64,65,66,67,68,71,72,85,86,91,92,93
0,1,2,9,13,14,15,18,23,25,26,27,28,32,34,35,44,45,48,49,51,52,53,54,57,58,59,60,61,62,63,64,65,66,67,68,71,72,85,86,91,92,93
0,1,2,10,13,14,15,18,19,22,23,25,26,27,28,32,34,35,44,45,48,49,51,52,53,54,57,58,59,60,61,62,63,64,65,66,67,68,71,72,85,86,91,92,93
0,1,2,11,13,14,15,16,18,23,25,26,27,28,32,34,35,50,51,52,53,54,57,58,59,60,61,62,63,64,65,66,67,68,71,72,85,86,91,92,93
0,1,2,9,13,14,15,19,23,25,26,27,28,32,34,35,36,37,38,50,51,52,53,54,57,58,59,60,61,62,63,64,65,66,67,68,71,72,85,86,91,92,93
0,1,2,10,13,14,15,18,19,23,25,26,27,28,32,34,35,40,41,50,51,52,53,54,57,58,59,60,61,62,63,64,65,66,67,68,71,72,85,86,91,92,93
0,1,9,10,13,14,15,18,19,23,25,26,27,28,32,34,35,36,37,38,44,45,50,51,52,53,54,57,58,59,60,61,62,63,64,65,66,67,68,71,72,85,86,91,92,93
0,1,3,4,5,6,9,10,13,14,15,18,19,23,25,26,27,28,32,34,35,46,47,48,50,51,52,53,54,57,58,59,60,61,62,63,64,65,66,67,68,71,72,85,86,91,92,93
0,1,2,9,11,13,14,18,19,23,25,26,27,28,32,34,35,49,50,51,52,53,54,57,58,59,60,61,62,63,64,65,66,67,68,71,72,85,86,91,92,93
0,1,2,9,13,14,15,20,23,25,26,27,28,32,34,35,40,41,48,49,50,51,52,53,54,57,58,59,60,61,62,63,64,65,66,67,68,71,72,85,86,91,92,93
0,1,2,9,13,14,15,22,23,25,26,27,28,32,34,35,40,41,42,43,48,49,50,51,52,53,54,57,58,59,60,61,62,63,64,65,66,67,68,71,72,85,86,91,92,93
0,1,9,10,11,12,13,14,18,19,20,23,25,26,27,28,32,34,35,36,37,38,40,41,42,43,44,45,48,49,50,51,52,53,54,57,58,59,60,61,62,63,64,65,66,67,68,71,72,85,86,91,92,93
0,1,5,6,9,10,11,12,13,14,18,19,20,23,25,26,27,28,32,34,35,36,37,38,40,41,44,45,46,47,48,49,50,51,52,53,54,57,58,59,60,61,62,63,64,65,66,67,68,71,72,85,86,91,92,93
0,1,2,3,4,5,6,9,11,13,14,18,22,23,25,26,27,28,32,34,35,36,37,38,48,51,52,53,54,55,56,57,58,59,60,61,62,63,64,65,66,67,68,71,72,85,86,91,92,93
0,1,5,6,9,11,13,14,15,18,19,23,25,26,27,28,32,34,35,48,49,50,51,52,53,54,55,56,57,58,59,60,61,62,63,64,65,66,67,68,71,72,85,86,91,92,93
0,1,2,10,13,14,15,18,19,20,23,25,26,27,28,32,34,35,46,47,50,51,52,53,54,57,58,59,60,61,62,63,64,65,66,67,68,69,70,71,72,85,86,91,92,93
0,1,5,6,9,10,11,13,14,15,18,23,25,26,27,28,32,34,35,46,47,48,49,50,51,52,59,60,61,62,63,64,65,66,73,74,85,86,91,92,93
0,1,2,9,12,13,14,15,18,23,25,26,27,28,32,34,35,50,51,52,59,60,61,62,63,64,65,66,67,68,69,70,71,72,73,74,85,86,91,92,93
0,1,2,9,10,13,14,18,19,23,25,26,27,28,32,34,35,42,43,46,47,50,51,52,53,54,59,60,61,62,63,64,65,66,67,68,71,72,75,76,85,86,91,92,93
2,3,4,5,6,9,10,13,14,15,17,18,19,20,26,28,46,47,51,52,57,58,59,60,61,62,63,64,65,66,67,68,71,72,75,76,85,86,91,92,93
0,1,9,10,11,13,14,15,18,23,25,26,27,28,32,34,35,36,37,38,40,41,50,51,52,57,58,59,60,61,62,63,64,65,66,67,68,71,72,75,76,85,86,91,92,93
0,1,2,9,10,13,14,18,19,23,25,26,27,28,32,34,35,46,47,50,51,52,57,58,59,60,61,62,63,64,65,66,67,68,71,72,75,76,85,86,91,92,93
0,1,9,10,11,13,14,15,18,19,23,25,26,27,28,32,34,35,36,37,38,46,47,50,51,52,57,58,59,60,61,62,63,64,65,66,67,68,71,72,75,76,85,86,91,92,93
0,1,2,10,12,13,14,18,19,23,25,26,27,28,32,34,35,40,41,44,45,48,50,51,52,57,58,59,60,61,62,63,64,65,66,67,68,71,72,75,76,85,86,91,92,93
0,1,3,4,5,6,9,10,13,14,15,18,23,25,26,27,28,32,34,35,40,41,48,49,50,51,52,57,58,59,60,61,62,63,64,65,66,67,68,71,72,75,76,85,86,91,92,93
0,1,2,9,11,13,14,16,18,19,23,25,26,27,28,32,34,35,50,51,52,53,54,57,58,59,60,61,62,63,64,65,66,67,68,71,72,75,76,85,86,91,92,93
0,1,2,11,13,14,15,18,22,23,25,26,27,28,32,34,35,36,37,38,50,51,52,53,54,57,58,59,60,61,62,63,64,65,66,67,68,71,72,75,76,85,86,91,92,93
0,1,2,11,12,13,14,15,18,22,23,25,26,27,28,32,34,35,40,41,44,45,50,51,52,53,54,57,58,59,60,61,62,63,64,65,66,67,68,71,72,75,76,85,86,91,92,93
0,1,9,10,13,14,15,16,17,18,19,23,25,26,27,28,32,34,35,40,41,48,49,50,51,52,53,54,57,58,59,60,61,62,63,64,65,66,67,68,71,72,75,76,85,86,91,92,93
0,1,3,4,5,6,9,10,13,14,15,17,18,19,20,23,25,26,27,28,32,34,35,36,37,38,48,50,51,52,57,58,59,60,61,62,63,64,65,66,67,68,71,72,77,78,85,86,91,92,93
0,1,9,11,13,14,15,18,19,20,23,25,26,27,28,32,34,35,44,45,48,50,51,52,53,54,57,58,59,60,61,62,63,64,65,66,67,68,71,72,77,78,85,86,91,92,93
0,1,9,10,11,13,14,15,18,19,23,25,26,27,28,32,34,35,37,38,40,41,42,43,46,47,49,50,51,52,59,60,61,62,63,64,65,66,67,68,71,72,79,80,85,86,91,92,93
0,1,9,10,11,13,14,15,18,19,23,25,26,27,28,32,34,35,36,37,38,51,52,53,54,57,58,59,60,61,62,63,64,65,66,67,68,71,72,79,80,85,86,91,92,93
0,1,2,9,13,14,17,18,23,25,26,27,28,32,34,35,48,50,51,52,53,54,57,58,59,60,61,62,63,64,65,66,67,68,71,72,79,80,85,86,91,92,93
0,1,9,13,14,15,17,18,19,23,25,26,27,28,32,34,35,36,37,38,46,47,48,49,50,51,52,53,54,57,58,59,60,61,62,63,64,65,66,67,68,71,72,81,82,85,86,91,92,93
2,15,18,19,26,28,37,38,48,49,50,51,52,53,54,90,91,92,93
2,15,18,19,22,23,25,26,27,28,32,34,35,44,45,48,49,50,51,52,53,54,90,91,92,93
2,9,13,14,15,18,25,26,27,28,34,35,36,37,38,40,41,48,51,52,57,58,90,91,92,93
2,15,18,19,23,25,26,27,28,32,34,35,44,45,48,50,51,52,65,66,90,91,92,93
0,1,9,10,11,13,14,15,18,23,25,26,27,28,32,34,35,37,38,48,49,50,51,52,53,54,63,64,65,66,90,91,92,93
0,1,3,4,5,6,9,10,11,12,13,14,15,18,19,20,26,28,44,45,48,49,50,51,52,53,54,55,56,63,64,65,66,90,91,92,93
0,1,9,10,11,13,14,15,18,23,25,26,27,28,32,34,35,36,37,38,48,49,50,51,52,62,65,66,67,68,90,91,92,93
0,1,9,10,13,14,15,16,18,19,23,25,26,27,28,32,34,35,42,43,48,50,51,52,62,65,66,67,68,69,70,90,91,92,93
0,1,5,6,9,10,11,13,14,15,18,23,25,26,27,28,32,34,35,40,41,42,43,44,45,48,50,51,52,62,65,66,67,68,69,70,90,91,92,93
0,1,5,6,9,10,13,14,15,18,19,23,25,26,27,28,32,34,35,36,37,38,48,49,50,51,52,62,65,66,67,68,69,70,90,91,92,93
2,9,13,14,15,18,19,23,25,26,27,28,32,34,35,36,37,38,48,49,51,52,57,58,71,72,90,91,92,93
2,5,6,9,13,14,18,19,23,25,26,27,28,32,34,35,36,37,38,48,49,50,51,52,57,58,63,64,71,72,90,91,92,93
2,9,13,14,18,23,25,26,27,28,32,34,35,36,37,38,48,49,50,51,52,67,68,71,72,90,91,92,93
2,3,4,5,6,9,13,14,18,19,23,25,26,27,28,32,34,35,37,38,48,49,50,51,52,53,54,67,68,71,72,90,91,92,93
2,5,6,9,13,14,18,19,23,25,26,27,28,32,34,35,37,38,48,49,50,51,52,53,54,65,66,67,68,71,72,90,91,92,93
2,5,6,9,13,14,18,19,22,23,25,26,27,28,34,35,37,38,48,49,50,51,52,53,54,57,58,63,64,65,66,67,68,71,72,90,91,92,93
2,5,6,9,13,14,18,19,25,26,27,28,32,34,35,37,38,48,49,50,51,52,53,54,57,58,63,64,65,66,67,68,71,72,90,91,92,93
2,3,4,5,6,15,18,19,20,22,23,25,26,27,28,32,34,35,48,50,51,52,53,54,55,56,57,58,69,70,71,72,90,91,92,93
2,3,4,5,6,9,13,14,18,19,23,25,26,27,28,32,34,35,36,37,38,48,49,50,51,52,53,54,57,58,71,72,75,76,90,91,92,93
0,1,10,11,13,14,15,18,20,23,25,26,27,28,32,34,35,36,37,38,40,41,44,45,46,47,48,49,50,51,52,59,60,65,66,67,68,71,72,79,80,81,82,90,91,92,93
0,1,9,10,11,13,14,15,18,19,20,25,26,27,28,34,35,36,37,38,44,45,46,47,48,49,50,51,52,53,54,55,56,57,58,59,60,63,64,65,66,69,70,71,72,86,90,91,92,93
0,1,9,10,11,13,14,15,18,23,25,26,27,28,32,34,35,46,47,48,50,51,52,59,60,61,62,65,66,85,86,90,91,92,93
0,1,9,10,13,14,15,18,23,25,26,27,28,32,34,35,36,37,38,42,43,44,45,48,49,50,51,52,59,60,61,62,63,64,65,66,85,86,90,91,92,93
0,1,2,3,4,5,6,9,12,13,14,15,18,19,23,25,26,27,28,32,34,35,37,38,48,51,52,57,58,59,60,61,62,63,64,65,66,85,86,90,91,92,93
0,1,2,3,4,5,6,9,13,14,18,19,23,25,26,27,28,32,34,35,48,49,50,51,52,57,58,59,60,61,62,63,64,65,66,85,86,90,91,92,93
0,1,3,4,5,6,10,11,13,14,15,18,19,23,25,26,27,28,32,34,35,48,49,50,51,52,57,58,59,60,61,62,63,64,65,66,85,86,90,91,92,93
0,1,3,4,5,6,9,10,13,14,15,18,23,25,26,27,28,32,34,35,44,45,48,49,50,51,52,57,58,59,60,61,62,63,64,65,66,85,86,90,91,92,93
2,3,4,5,6,12,13,14,15,18,19,22,23,25,26,27,28,32,34,35,36,37,38,48,49,51,52,53,54,57,58,59,60,61,62,63,64,65,66,85,86,90,91,92,93
0,1,3,4,5,6,9,10,13,14,15,17,18,19,22,23,25,26,27,28,32,34,35,36,37,38,40,41,48,50,51,52,53,54,57,58,59,60,61,62,63,64,65,66,85,86,90,91,92,93
0,1,5,6,9,10,13,14,15,17,18,19,23,25,26,27,28,32,34,35,36,37,38,46,47,48,50,51,52,53,54,55,56,57,58,59,60,61,62,63,64,65,66,67,85,86,90,91,92,93
0,1,2,9,13,14,15,16,18,19,23,25,26,27,28,32,34,35,40,41,42,43,44,45,48,49,51,52,57,58,59,60,61,62,63,64,65,66,67,68,85,86,90,91,92,93
0,1,3,4,5,6,9,11,13,14,15,18,19,23,25,26,27,28,32,34,35,44,45,48,50,51,52,57,58,59,60,61,62,63,64,65,66,67,68,85,86,90,91,92,93
0,1,3,4,5,6,9,10,13,14,15,18,19,23,25,26,27,28,32,34,35,36,37,38,48,49,50,51,52,57,58,59,60,61,62,63,64,65,66,67,68,85,86,90,91,92,93
0,1,9,10,13,14,15,18,19,23,25,26,27,28,32,34,35,37,38,44,45,46,47,48,49,50,51,52,53,54,57,58,59,60,61,62,63,64,65,66,67,68,85,86,90,91,92,93
0,1,3,4,5,6,9,10,13,14,15,18,23,25,26,27,28,32,34,35,36,37,38,44,45,48,50,51,52,53,54,57,58,59,60,61,62,63,64,65,66,67,68,69,70,85,86,90,91,92,93
0,1,2,9,13,14,15,18,23,25,26,27,28,32,34,35,40,41,44,45,48,51,52,57,58,59,60,61,62,63,64,65,66,67,68,71,85,86,90,91,92,93
0,1,3,4,5,6,9,10,13,14,15,17,18,23,25,26,27,28,32,34,35,36,37,38,48,50,51,52,53,54,55,56,57,58,59,60,61,62,63,64,65,66,67,68,71,85,86,90,91,92,93
0,1,2,3,4,5,6,15,18,23,25,26,27,28,32,34,35,48,50,51,52,57,58,59,60,61,62,63,64,65,66,71,72,85,86,90,91,92,93
0,1,3,4,5,6,9,11,13,14,15,18,19,20,23,25,26,27,28,32,34,35,44,45,48,50,51,52,57,58,59,60,61,62,63,64,65,66,71,72,85,86,90,91,92,93
0,1,5,6,10,11,13,14,15,18,19,23,25,26,27,28,32,34,35,36,37,38,40,41,44,45,46,47,48,50,51,52,57,58,59,60,61,62,63,64,65,66,71,72,85,86,90,91,92,93
0,1,9,10,11,13,14,15,18,19,26,28,36,37,38,46,47,48,49,50,51,52,57,58,59,60,61,62,63,64,65,66,71,72,85,86,90,91,92,93
0,1,9,10,11,13,14,15,18,23,25,26,27,28,32,34,35,40,41,42,43,48,50,51,52,59,60,61,62,65,66,67,68,71,72,85,86,90,91,92,93
0,1,9,10,11,13,14,15,18,23,25,26,27,28,32,34,35,44,45,48,50,51,52,59,60,61,62,65,66,67,68,71,72,85,86,90,91,92,93
0,1,9,10,13,14,15,18,19,23,25,26,27,28,32,34,35,36,37,38,48,50,51,52,59,60,61,62,63,64,65,66,67,68,71,72,85,86,90,91,92,93
0,1,9,10,11,13,14,15,18,23,25,26,27,28,32,34,35,48,49,50,51,52,53,54,59,60,61,62,63,64,65,66,67,68,71,72,85,86,90,91,92,93
2,3,4,5,6,9,13,14,15,18,19,23,25,26,27,28,32,34,35,48,51,52,57,58,59,60,61,62,63,64,65,66,67,68,71,72,85,86,90,91,92,93
0,1,2,9,13,14,15,18,23,25,26,27,28,32,34,35,40,41,42,43,48,51,52,57,58,59,60,61,62,63,64,65,66,67,68,71,72,85,86,90,91,92,93
0,1,3,4,5,6,9,11,13,14,15,18,23,25,26,27,28,32,34,35,44,45,48,50,51,52,57,58,59,60,61,62,63,64,65,66,67,68,71,72,85,86,90,91,92,93
0,1,10,11,13,14,15,18,19,23,25,26,27,28,32,34,35,44,45,48,50,51,52,57,58,59,60,61,62,63,64,65,66,67,68,71,72,85,86,90,91,92,93
0,1,3,4,5,6,10,11,13,14,15,18,23,25,26,27,28,32,34,35,40,41,46,47,48,50,51,52,57,58,59,60,61,62,63,64,65,66,67,68,71,72,85,86,90,91,92,93
0,1,9,10,13,14,15,18,19,23,25,26,27,28,32,34,35,44,45,46,47,48,50,51,52,57,58,59,60,61,62,63,64,65,66,67,68,71,72,85,86,90,91,92,93
0,1,2,5,6,9,13,14,18,19,23,25,26,27,28,32,34,35,48,49,50,51,52,57,58,59,60,61,62,63,64,65,66,67,68,71,72,85,86,90,91,92,93
0,1,9,11,13,14,15,18,23,25,26,27,28,32,34,35,36,37,38,48,49,50,51,52,57,58,59,60,61,62,63,64,65,66,67,68,71,72,85,86,90,91,92,93
0,1,10,11,12,13,14,15,18,23,25,26,27,28,32,34,35,36,37,38,48,49,50,51,52,57,58,59,60,61,62,63,64,65,66,67,68,71,72,85,86,90,91,92,93
0,1,2,9,13,14,15,18,22,23,25,26,27,28,32,34,35,36,37,38,42,43,48,49,51,52,53,54,57,58,59,60,61,62,63,64,65,66,67,68,71,72,85,86,90,91,92,93
0,1,3,4,5,6,10,11,13,14,15,18,19,23,25,26,27,28,32,34,35,36,37,38,48,50,51,52,53,54,57,58,59,60,61,62,63,64,65,66,67,68,71,72,85,86,90,91,92,93
0,1,2,15,17,18,19,22,23,25,26,27,28,32,34,35,40,41,46,47,48,50,51,52,53,54,57,58,59,60,61,62,63,64,65,66,67,68,71,72,85,86,90,91,92,93
0,1,9,10,13,14,15,18,23,25,26,27,28,32,34,35,36,37,38,40,41,44,45,48,49,50,51,52,53,54,57,58,59,60,61,62,63,64,65,66,67,68,71,72,85,86,90,91,92,93
0,1,3,4,5,6,9,10,13,14,15,18,20,23,25,26,27,28,32,34,35,36,37,38,46,47,48,49,50,51,52,53,54,57,58,59,60,61,62,63,64,65,66,67,68,71,72,85,86,90,91,92,93
0,1,9,10,11,13,14,17,18,19,23,25,26,27,28,32,34,35,42,43,46,47,48,49,50,51,52,53,54,57,58,59,60,61,62,63,64,65,66,67,68,71,72,85,86,90,91,92,93
0,1,3,4,5,6,9,10,13,14,15,18,23,25,26,27,28,32,34,35,40,41,42,43,46,47,48,49,50,51,52,53,54,57,58,59,60,61,62,63,64,65,66,67,68,71,72,85,86,90,91,92,93
0,1,9,10,13,14,15,18,20,23,25,26,27,28,32,34,35,36,37,38,44,45,46,47,48,50,51,52,57,58,59,60,61,62,63,64,65,66,67,68,69,70,71,72,85,86,90,91,92,93
0,1,9,10,13,14,15,18,19,23,25,26,27,28,32,34,35,48,50,51,52,57,58,59,60,61,62,63,64,65,66,67,68,71,72,75,76,85,86,90,91,92,93
0,1,2,9,13,14,18,19,23,25,26,27,28,32,34,35,48,49,50,51,52,53,54,57,58,59,60,61,62,63,64,65,66,67,68,71,72,81,82,85,86,90,91,92,93
