0 1 12 13
0 1 7 8 9 10 14
0 1 3 5 7 9 10 14 16
0 1 7 9 10 12 14 20
0 1 7 9 10 12 16 20
0 1 2 11 12 14 16 17 18 20 23
0 1 2 5 7 9 10 11 14 16 20 24
0 1 7 9 10 14 16 20 25
0 1 2 3 7 9 10 11 12 14 16 22 25
0 1 2 7 9 10 11 12 14 24 26
0 1 2 7 9 10 11 14 26 27
0 1 2 3 7 9 10 11 14 20 24 25 29
0 1 3 7 9 10 14 16 17 18 19 20 22 23 33
0 1 2 7 9 10 11 14 15 16 17 18 19 20 22 23 33
0 1 7 9 10 14 15 16 17 18 20 21 24 33
0 1 2 3 7 9 10 11 14 16 24 26 33
0 1 7 9 10 14 16 17 18 20 23 35
0 1 7 9 10 14 16 20 36
0 1 2 7 9 10 11 14 20 24 25 35 36
0 1 2 3 7 8 10 11 14 15 16 17 18 20 24 25 26 27 28 29 30 33 35 36
0 1 2 3 5 11 12 16 17 18 20 23 34 35 36
0 1 11 12 16 17 18 20 23 36 37
0 1 3 7 8 10 14 16 17 18 19 20 23 24 25 26 27 29 33 36 37
0 1 2 3 7 9 10 14 20 35 36 37
0 1 2 3 5 7 8 10 11 14 16 17 18 20 21 24 25 26 27 29 30 32 33 34 35 36 37
0 1 2 5 7 8 10 11 14 15 16 17 18 20 23 25 26 27 35 36 37 39
0 1 2 3 7 8 10 11 14 15 16 17 18 20 24 25 26 27 29 33 34 35 36 37 39
0 1 2 3 7 8 10 11 14 16 17 18 20 21 24 25 26 27 29 33 34 35 36 37 38 39
